%block lattice_cart
 20 0 0
 0 20 0
 0 0 20
%endblock lattice_cart


%block positions_frac
N 0.627227 0.280886 0.7062 
Ru 0.494804 0.500007 0.754716 
Ru 0.531818 0.387295 0.687004
Ru 0.410028 0.424973 0.686811
Ru 0.410017 0.575087 0.686814 
Ru 0.531834 0.612736 0.68713 
Ru 0.618857 0.499567 0.692272 
Ru 0.652489 0.388034 0.610319 
Ru 0.570147 0.286443 0.615078 
Ru 0.44098 0.318366 0.61274
Ru 0.317355 0.36975 0.615482 
Ru 0.311707 0.499994 0.612505
Ru 0.317313 0.630272 0.615475
Ru 0.440962 0.681649 0.612854 
Ru 0.570131 0.713687 0.615145
Ru 0.65222 0.611898 0.610677
Ru 0.723708 0.500056 0.614382
Ru 0.629303 0.320015 0.49917
Ru 0.500627 0.281215 0.499393
Ru 0.370644 0.321716 0.500795
Ru 0.290064 0.433509 0.501231
Ru 0.29001 0.566327 0.501383
Ru 0.370653 0.678355 0.500837
Ru 0.500601 0.718849 0.499401
Ru 0.629188 0.680249 0.499604 
Ru 0.708311 0.57013 0.501427 
Ru 0.708412 0.430056 0.501389 
Ru 0.558355 0.323353 0.385439 
Ru 0.431148 0.287819 0.385868
Ru 0.349136 0.392022 0.382369 
Ru 0.273526 0.500057 0.388859 
Ru 0.349114 0.607907 0.382214 
Ru 0.430962 0.712244 0.385913 
Ru 0.558311 0.676863 0.385428 
Ru 0.68241 0.630778 0.384892
Ru 0.686205 0.500505 0.382166 
Ru 0.682472 0.369486 0.384932 
Ru 0.460825 0.392201 0.312008
Ru 0.384054 0.49999 0.310737 
Ru 0.460723 0.607863 0.312029 
Ru 0.595084 0.565565 0.312618 
Ru 0.595145 0.434669 0.312557
Ru 0.502608 0.500116 0.2469 
Ru 0.499994 0.500063 0.500858 
Ru 0.501694 0.500126 0.630767 
Ru 0.535385 0.390702 0.558326 
Ru 0.407489 0.431573 0.557917 
Ru 0.407472 0.568482 0.557922 
Ru 0.535333 0.609418 0.55839 
Ru 0.614486 0.500035 0.557437 
Ru 0.463687 0.391452 0.442669
Ru 0.38516 0.500018 0.442307 
Ru 0.463633 0.608608 0.442664
Ru 0.593374 0.568167 0.443528 
Ru 0.5935 0.432368 0.443422 
Ru 0.499439 0.500041 0.371322
%endblock positions_frac

symmetry_generate

kpoints_mp_spacing 0.04

