%BLOCK LATTICE_CART
ang    # angstrom units
  34.991925670000001   0.000000000000000   0.000000000000000
  34.704773750705129   4.473649629460641   0.000000000000000
  34.704773750705129   2.227609047785620   3.879600357948559
%ENDBLOCK LATTICE_CART

%BLOCK POSITIONS_FRAC
Bi   0.174612000000000   0.174612000000000   0.174612000000000 
Bi   0.882380000000000   0.882380000000000   0.882380000000000 
Bi   0.352501000000000   0.352501000000000   0.352501000000000 
Bi   0.412125000000000   0.412125000000000   0.412125000000000 
Bi   0.587875000000000   0.587875000000000   0.587875000000000 
Bi   0.647499000000000   0.647499000000000   0.647499000000000 
Bi   0.825388000000000   0.825388000000000   0.825388000000000 
Bi   0.117620000000000   0.117620000000000   0.117620000000000 
Te   0.297890000000000   0.297890000000000   0.297890000000000 
Te   0.467446000000000   0.467446000000000   0.467446000000000 
Te   0.062558000000000   0.062558000000000   0.062558000000000 
Te   0.702110000000000   0.702110000000000   0.702110000000000 
Te   0.532554000000000   0.532554000000000   0.532554000000000 
Te   0.234927000000000   0.234927000000000   0.234927000000000 
Te   0.000000000000000   0.000000000000000   0.000000000000000 
Te   0.765073000000000   0.765073000000000   0.765073000000000 
Te   0.937442000000000   0.937442000000000   0.937442000000000 
%ENDBLOCK POSITIONS_FRAC

kpoints_mp_spacing 0.04
